(set-logic HORN)
(declare-fun state (Int Int Int Int Int Int Int Int Int Int Int Int Int Int Int Int Int Int Int (Array Int Int) (Array Int Int) (Array Int Int) Int Int (Array Int Int) (Array Int Int) Int Int Int Int Int Int Int Int Int Int Bool Bool Bool) Bool)
(assert (forall ((|L1| Int) (|B| Int) (|M1| Int) (|D| Int) (|N1| Int) (|F| Int) (|O1| Int) (|H| Int) (|P1| Int) (|J| Int) (|Q1| Int) (|L| Int) (|R1| Int) (|N| Int) (|O| Int) (|S1| Int) (|Q| Int) (|T1| Int) (|S| Int) (|U1| (Array Int Int)) (|U| (Array Int Int)) (|V| (Array Int Int)) (|V1| Int) (|X| Int) (|W1| (Array Int Int)) (|Z| (Array Int Int)) (|A1| Int) (|B1| Int) (|C1| Int) (|D1| Int) (|E1| Int) (|F1| Int) (|G1| Int) (|H1| Int) (|I1| Int) (|J1| Int) (|K1| Bool) (|.loc.3| Bool) (|.loc.4| Bool) (|.x.129| Int) (|.x.131| Int) (|.x.133| Int) (|.x.135| Int) (|.x.137| Int) (|.x.139| Int) (|.x.141| Int) (|.x.142| Int) (|.x.144| Int) (|.x.146| Int) (|.x.148| (Array Int Int)) (|.x.149| (Array Int Int)) (|.x.153| (Array Int Int)) (|.x.151| Int) (|.loc.5| Bool) (|.loc.6| Bool) (|.x.154| Int) (|.x.157| Int) (|.x.155| Int) (|.x.158| Int) (|.x.128| Int) (|.x.161| Int) (|.x.132| Int) (|.x.162| Int) (|.x.160| Int) (|.x.150| Int) (|.x.163| Int) (|.x.143| Int) (|.x.156| Int) (|K1_3| Bool) (|.x.136| Int) (|.x.145| Int) (|.x.152| (Array Int Int)) (|.x.147| (Array Int Int)) (|.x.130| Int) (|.x.134| Int) (|.x.138| Int) (|.x.140| Int) (|.x.159| Int)) (=> (and (and (not .loc.4) (not .loc.3)) (and (and (and (and (and (and (and (and (and (and (and (and (= L1 B) (not K1)) (= W1 Z)) (= U1 U)) (= O1 H)) (= P1 J)) (= S1 Q)) (= V1 X)) (= T1 S)) (= R1 N)) (= Q1 L)) (= M1 D)) (= N1 F))) (state |L1| |B| |M1| |D| |N1| |F| |O1| |H| |P1| |J| |Q1| |L| |R1| |N| |O| |S1| |Q| |T1| |S| |U1| |U| |V| |V1| |X| |W1| |Z| |A1| |B1| |C1| |D1| |E1| |F1| |G1| |H1| |I1| |J1| |K1| |.loc.3| |.loc.4|))))
(assert (forall ((|L1| Int) (|B| Int) (|M1| Int) (|D| Int) (|N1| Int) (|F| Int) (|O1| Int) (|H| Int) (|P1| Int) (|J| Int) (|Q1| Int) (|L| Int) (|R1| Int) (|N| Int) (|O| Int) (|S1| Int) (|Q| Int) (|T1| Int) (|S| Int) (|U1| (Array Int Int)) (|U| (Array Int Int)) (|V| (Array Int Int)) (|V1| Int) (|X| Int) (|W1| (Array Int Int)) (|Z| (Array Int Int)) (|A1| Int) (|B1| Int) (|C1| Int) (|D1| Int) (|E1| Int) (|F1| Int) (|G1| Int) (|H1| Int) (|I1| Int) (|J1| Int) (|K1| Bool) (|.loc.3| Bool) (|.loc.4| Bool) (|.x.129| Int) (|.x.131| Int) (|.x.133| Int) (|.x.135| Int) (|.x.137| Int) (|.x.139| Int) (|.x.141| Int) (|.x.142| Int) (|.x.144| Int) (|.x.146| Int) (|.x.148| (Array Int Int)) (|.x.149| (Array Int Int)) (|.x.153| (Array Int Int)) (|.x.151| Int) (|.loc.5| Bool) (|.loc.6| Bool) (|.x.154| Int) (|.x.157| Int) (|.x.155| Int) (|.x.158| Int) (|.x.128| Int) (|.x.161| Int) (|.x.132| Int) (|.x.162| Int) (|.x.160| Int) (|.x.150| Int) (|.x.163| Int) (|.x.143| Int) (|.x.156| Int) (|K1_3| Bool) (|.x.136| Int) (|.x.145| Int) (|.x.152| (Array Int Int)) (|.x.147| (Array Int Int)) (|.x.130| Int) (|.x.134| Int) (|.x.138| Int) (|.x.140| Int) (|.x.159| Int)) (=> (and (state |L1| |B| |M1| |D| |N1| |F| |O1| |H| |P1| |J| |Q1| |L| |R1| |N| |O| |S1| |Q| |T1| |S| |U1| |U| |V| |V1| |X| |W1| |Z| |A1| |B1| |C1| |D1| |E1| |F1| |G1| |H1| |I1| |J1| |K1| |.loc.3| |.loc.4|) (let ((.def_50 (not .loc.3))) (let ((.def_126 (= .x.154 .x.157))) (let ((.def_130 (= .x.155 .x.158))) (let ((.def_156 (and (= .x.128 .x.161) (and (= .x.132 .x.162) (and (= .x.158 .x.160) (and (= .x.157 .x.162) (and (= .x.155 .x.161) (and (= .x.160 .x.150) (and (= .x.154 .x.163) (= .x.163 .x.143)))))))))) (let ((.def_159 (= C1 .x.156))) (let ((.def_173 (store (store U1 0 0) .x.132 1))) (let ((.def_194 (= .x.132 0))) (let ((.def_224 (or K1 (and (= (select (select V .x.136) .x.145) 0) (and (= (select (select V .x.132) .x.150) 0) (and (= (select .def_173 .x.136) 0) (and (and (and (and (and (and (and (and (and (and (and (and (and (and (not (<= O .x.136)) (not (<= O .x.132))) (= (store (store W1 .x.132 4) .x.136 4) .x.152)) (= (store .def_173 .x.136 1) .x.147)) (= .x.145 .x.130)) (not .def_194)) (= .x.134 0)) (not (= .x.136 0))) (= .x.138 0)) (= .x.136 .x.140)) (= .x.150 0)) (= .x.145 0)) (= .x.132 .x.143)) (= .x.128 .x.150)) (= (ite .def_194 0 (select U1 .x.132)) 0)))))))) (let ((.def_255 (= K1 K1_3))) (let ((.def_287 (not .loc.6))) (and (and (not .loc.4) (and (= B .x.129) (and (= D .x.131) (and (= F .x.133) (and (= H .x.135) (and (= J .x.137) (and (= L .x.139) (and (= N .x.141) (and (= O .x.142) (and (= Q .x.144) (and (= S .x.146) (and (= U .x.148) (and (= V .x.149) (and (= Z .x.153) (= X .x.151))))))))))))))) (or (or (and (and (not .loc.5) .loc.6) (or (and .def_50 (and (or (not .def_126) (or K1 (not .def_130))) (and (or K1 .def_156) (and (and .def_159 K1_3) .def_224)))) (and (or K1 (= .x.159 0)) (and (= L1 .x.128) (and (= M1 .x.130) (and (= N1 .x.132) (and (= O1 .x.134) (and (= P1 .x.136) (and (= Q1 .x.138) (and (= R1 .x.140) (and (= S1 .x.143) (and (= T1 .x.145) (and (= U1 .x.147) (and (= V1 .x.150) (and (= W1 .x.152) (and (= A1 .x.154) (and (= B1 .x.155) (and (= D1 .x.157) (and (= E1 .x.158) (and (= G1 .x.160) (and (= H1 .x.161) (and (= I1 .x.162) (and (= J1 .x.163) (and (and .loc.3 (or K1_3 (= .x.156 .x.159))) .def_255)))))))))))))))))))))))) (and (or .def_156 K1_3) (and (or K1_3 (and .def_126 .def_130)) (and (and .def_255 (and .loc.5 (and .def_50 (and .def_159 .def_224)))) .def_287)))) (and .def_287 (and .loc.5 (and .def_50 (and .def_224 (and .def_159 (and K1 K1_3))))))))))))))))))) (state |.x.128| |.x.129| |.x.130| |.x.131| |.x.132| |.x.133| |.x.134| |.x.135| |.x.136| |.x.137| |.x.138| |.x.139| |.x.140| |.x.141| |.x.142| |.x.143| |.x.144| |.x.145| |.x.146| |.x.147| |.x.148| |.x.149| |.x.150| |.x.151| |.x.152| |.x.153| |.x.154| |.x.155| |.x.156| |.x.157| |.x.158| |.x.159| |.x.160| |.x.161| |.x.162| |.x.163| |K1_3| |.loc.5| |.loc.6|))))
(assert (forall ((|L1| Int) (|B| Int) (|M1| Int) (|D| Int) (|N1| Int) (|F| Int) (|O1| Int) (|H| Int) (|P1| Int) (|J| Int) (|Q1| Int) (|L| Int) (|R1| Int) (|N| Int) (|O| Int) (|S1| Int) (|Q| Int) (|T1| Int) (|S| Int) (|U1| (Array Int Int)) (|U| (Array Int Int)) (|V| (Array Int Int)) (|V1| Int) (|X| Int) (|W1| (Array Int Int)) (|Z| (Array Int Int)) (|A1| Int) (|B1| Int) (|C1| Int) (|D1| Int) (|E1| Int) (|F1| Int) (|G1| Int) (|H1| Int) (|I1| Int) (|J1| Int) (|K1| Bool) (|.loc.3| Bool) (|.loc.4| Bool) (|.x.129| Int) (|.x.131| Int) (|.x.133| Int) (|.x.135| Int) (|.x.137| Int) (|.x.139| Int) (|.x.141| Int) (|.x.142| Int) (|.x.144| Int) (|.x.146| Int) (|.x.148| (Array Int Int)) (|.x.149| (Array Int Int)) (|.x.153| (Array Int Int)) (|.x.151| Int) (|.loc.5| Bool) (|.loc.6| Bool) (|.x.154| Int) (|.x.157| Int) (|.x.155| Int) (|.x.158| Int) (|.x.128| Int) (|.x.161| Int) (|.x.132| Int) (|.x.162| Int) (|.x.160| Int) (|.x.150| Int) (|.x.163| Int) (|.x.143| Int) (|.x.156| Int) (|K1_3| Bool) (|.x.136| Int) (|.x.145| Int) (|.x.152| (Array Int Int)) (|.x.147| (Array Int Int)) (|.x.130| Int) (|.x.134| Int) (|.x.138| Int) (|.x.140| Int) (|.x.159| Int)) (=> (state |L1| |B| |M1| |D| |N1| |F| |O1| |H| |P1| |J| |Q1| |L| |R1| |N| |O| |S1| |Q| |T1| |S| |U1| |U| |V| |V1| |X| |W1| |Z| |A1| |B1| |C1| |D1| |E1| |F1| |G1| |H1| |I1| |J1| |K1| |.loc.3| |.loc.4|) (not (and K1 (and .loc.4 (not .loc.3)))))))
(check-sat)
